
Gurobi 9.5.1 (linux64) logging started Tue Jul  5 12:22:50 2022

Set parameter LogFile to value "../results/logs/log_soc-twitter-higgs.e_17_250_2022_07_05_11_53.log"
Gurobi Optimizer version 9.5.1 build v9.5.1rc2 (linux64)
Thread count: 8 physical cores, 8 logical processors, using up to 8 threads
Optimize a model with 28133 rows, 913262 columns and 625106 nonzeros
Model fingerprint: 0xce633a6e
Coefficient statistics:
  Matrix range     [1e+00, 2e+01]
  Objective range  [1e+00, 1e+00]
  Bounds range     [1e+00, 1e+00]
  RHS range        [1e+00, 2e+02]

Concurrent LP optimizer: primal simplex, dual simplex, and barrier
Showing barrier log only...

Presolve removed 4840 rows and 885733 columns
Presolve time: 0.49s
Presolved: 23293 rows, 27529 columns, 97758 nonzeros

Ordering time: 0.00s

Barrier statistics:
 AA' NZ     : 7.128e+04
 Factor NZ  : 1.828e+05 (roughly 14 MB of memory)
 Factor Ops : 6.277e+06 (less than 1 second per iteration)
 Threads    : 6

                  Objective                Residual
Iter       Primal          Dual         Primal    Dual     Compl     Time
   0   2.78720774e+05  3.57093664e+05  1.76e+04 4.22e+00  3.94e+02     1s
   1   2.55995664e+05  4.49021515e+05  7.19e+03 3.98e+00  1.54e+02     1s
   2   2.37856330e+05  4.61232508e+05  8.71e+02 2.12e-01  2.22e+01     1s
   3   2.35035315e+05  3.23426007e+05  1.71e+02 2.66e-14  4.37e+00     1s
   4   2.34534475e+05  2.61417160e+05  5.23e+01 6.62e-14  1.16e+00     1s
   5   2.34607946e+05  2.45220458e+05  2.75e+01 6.42e-14  4.91e-01     1s
   6   2.35416836e+05  2.39368230e+05  4.91e+00 3.20e-14  1.25e-01     1s
   7   2.35861079e+05  2.37758246e+05  1.57e+00 2.86e-14  4.88e-02     1s
   8   2.35977384e+05  2.37157065e+05  8.12e-01 2.49e-14  2.83e-02     1s
   9   2.36061418e+05  2.36981496e+05  4.05e-01 2.42e-14  2.10e-02     1s
  10   2.36130390e+05  2.36997548e+05  3.49e-01 2.32e-14  1.98e-02     1s
  11   2.36144714e+05  2.36881176e+05  3.27e-01 2.09e-14  1.68e-02     1s
  12   2.36146723e+05  2.36817388e+05  3.24e-01 2.05e-14  1.53e-02     1s
  13   2.36167380e+05  2.36699669e+05  2.56e-01 1.81e-14  1.20e-02     1s
  14   2.36212429e+05  2.36644052e+05  1.32e-01 2.21e-14  9.54e-03     1s
  15   2.36226173e+05  2.36548497e+05  1.12e-01 2.37e-14  7.13e-03     1s
  16   2.36256709e+05  2.36506526e+05  6.94e-02 1.35e-14  5.48e-03     1s
  17   2.36291026e+05  2.36430978e+05  4.05e-02 7.74e-15  3.07e-03     1s
  18   2.36310871e+05  2.36388013e+05  2.59e-02 7.84e-15  1.70e-03     1s
  19   2.36330664e+05  2.36362851e+05  1.26e-02 9.55e-15  7.10e-04     1s
  20   2.36340983e+05  2.36357297e+05  5.44e-03 1.27e-14  3.58e-04     1s
  21   2.36342858e+05  2.36356478e+05  4.24e-03 1.28e-14  2.98e-04     1s
  22   2.36344980e+05  2.36353322e+05  2.89e-03 1.22e-14  1.83e-04     1s
  23   2.36346613e+05  2.36351741e+05  1.89e-03 1.01e-14  1.13e-04     1s
  24   2.36347797e+05  2.36350654e+05  1.19e-03 1.30e-14  6.31e-05     1s
  25   2.36349503e+05  2.36350087e+05  1.80e-04 1.99e-14  1.28e-05     1s
  26   2.36349663e+05  2.36349923e+05  9.51e-05 9.55e-15  5.72e-06     1s
  27   2.36349795e+05  2.36349876e+05  2.83e-05 1.34e-14  1.77e-06     1s
  28   2.36349838e+05  2.36349854e+05  6.68e-06 1.68e-14  3.42e-07     1s
  29   2.36349851e+05  2.36349853e+05  4.60e-07 1.12e-14  3.77e-08     1s
  30   2.36349852e+05  2.36349852e+05  2.27e-13 1.34e-14  5.34e-11     1s
  31   2.36349852e+05  2.36349852e+05  6.75e-12 8.78e-15  2.54e-16     1s

Barrier solved model in 31 iterations and 0.79 seconds (0.52 work units)
Optimal objective 2.36349852e+05

Crossover log...

    4149 DPushes remaining with DInf 0.0000000e+00                 1s
       0 DPushes remaining with DInf 0.0000000e+00                 1s

       8 PPushes remaining with PInf 0.0000000e+00                 1s
       0 PPushes remaining with PInf 0.0000000e+00                 1s

  Push phase complete: Pinf 0.0000000e+00, Dinf 4.1517787e-14      1s

Iteration    Objective       Primal Inf.    Dual Inf.      Time
    2090    2.3634985e+05   0.000000e+00   0.000000e+00      1s

Use crossover to convert LP symmetric solution to basic solution...
Crossover log...

       0 DPushes remaining with DInf 0.0000000e+00                 1s

      41 PPushes remaining with PInf 0.0000000e+00                 1s
       0 PPushes remaining with PInf 0.0000000e+00                 1s

  Push phase complete: Pinf 0.0000000e+00, Dinf 3.7981120e-14      1s

Iteration    Objective       Primal Inf.    Dual Inf.      Time
    3336    2.3634985e+05   0.000000e+00   0.000000e+00      1s

Solved with primal simplex
Solved in 9279 iterations and 1.02 seconds (0.52 work units)
Optimal objective  2.363498522e+05
